09-routing/solutions/XSH-n20-k4-36.opt.sol
Route #1: 15 11 10 20 3 2
Route #2: 16 7 9 19 17
Route #3: 5 8 13 1 18
Route #4: 14 12 6 4
Cost 610
